(set-logic ALL)
(declare-const k Int)
(declare-fun s () (_ BitVec k))
(declare-fun t () (_ BitVec k))
(assert (distinct (distinct (_ bv0 k) (bvmul t (bvshl s t))) (distinct (_ bv0 k) (bvmul s (bvshl t t)))))
(check-sat)
